(declare-fun mk_ok (Int) Int)
(declare-fun mk_err (Int) Int)
(declare-fun is_ok (Int) Bool)
(declare-fun unwrap_ok (Int) Int)
(declare-fun unwrap_err (Int) Int)
(declare-fun valid (Int) Bool)
(declare-fun valid_read (Int) Bool)
(declare-fun separated (Int Int) Bool)
(declare-const __call_other_public_func Int)
(assert (not (=> true (and (=> (= __call_other_public_func 42) true) (=> (not (= __call_other_public_func 42)) true)))))
(check-sat)
